NAME: ../File/prFile/tspFile/tsp_file8.tsp
COMMENT: TSP file generated by Python
TYPE: TSP
DIMENSION: 30
EDGE_WEIGHT_TYPE: EUC_2D
NODE_COORD_SECTION
1 55 60
2 32 63
3 10 77
4 64 75
5 7 42
6 84 39
7 66 24
8 19 65
9 67 1
10 16 78
11 54 76
12 99 52
13 10 64
14 54 49
15 85 62
16 48 10
17 98 82
18 70 21
19 16 78
20 57 52
21 33 98
22 1 17
23 23 26
24 79 94
25 8 99
26 21 46
27 68 87
28 16 27
29 27 58
30 36 36
EOF
